number of jobs, number of machines, initial seed, upper bound and lower bound :
10           10   0000        0000        0000
processing times :
 68 12 16 76 22 88 95 60 50 31
 41 48 41 83 83 59 66 55 93 8
 40 45 61 27 86 93 96 14 98 81
 7 15 14 9 29 60 54 29 81 8
 88 20 18 94 99 21 92 12 41 19
 98 48 86 79 93 65 4 48 67 35
 31 17 52 59 94 40 14 46 14 25
 27 92 73 40 18 18 38 5 82 88
 8 63 58 46 26 25 18 94 46 82
 5 99 60 71 28 46 91 39 49 99
